WARNING: for repeatability, setting FPU to use double precision
============================[ Problem Statistics ]=============================
|                                                                             |
|  Number of variables:          9383                                         |
|  Number of clauses:           28080                                         |
|  Parse time:                   0.01 s                                       |
|                                                                             |
c ============================[ Search Statistics ]==============================
c | Conflicts |          ORIGINAL         |          LEARNT          | Progress |
c |           |    Vars  Clauses Literals |    Limit  Clauses Lit/Cl |          |
c ===============================================================================
c Switched to VSIDS.
c Switched to LRB.
c Switched to VSIDS.
c Switched to LRB.
c Switched to VSIDS.
c Switched to LRB.
c Switched to VSIDS.
c Switched to LRB.
c Switched to VSIDS.
c Switched to LRB.
c Switched to VSIDS.
c Switched to LRB.
c Switched to VSIDS.
c Switched to LRB.
c Switched to VSIDS.
c Switched to LRB.
c Switched to VSIDS.
c Switched to LRB.
c Switched to VSIDS.
c Switched to LRB.
c Switched to VSIDS.
c Switched to LRB.
c Switched to VSIDS.
c Switched to LRB.
c Switched to VSIDS.
c Switched to LRB.
c Switched to VSIDS.
c Switched to LRB.
c Switched to VSIDS.
c Switched to LRB.
c Switched to VSIDS.
c Switched to LRB.
c Switched to VSIDS.
c ===============================================================================
restarts                  : 6241
conflicts                 : 4899607        (1372 /sec)
decisions                 : 5230414        (0.00 % random) (1464 /sec)
propagations              : 7669649920     (2147279 /sec)
conflict literals         : 153327824      (68.77 % deleted)

conflicts w/ DIP found    : 3538903        (72.23 % of conflicts)
conflicts w/ dangerous DIP: 0              (0.00 % of conflicts)
conflicts w/ DIP-learning : 27175          (0.55 % of conflicts)
decisions on ext vars     : 35921          (0.69 % of decisions)
total ext vars            : 20385       
tried delete ext vars     : 19413       
deleted ext vars          : 19413       
max ext vars              : 1113        

Memory used               : 110.00 MB
CPU time                  : 3571.8 s
DIP computation time      : 66.5252 s (1.86 % of total time)
ER_sel time               : 4.80177 s
ER_add time               : 0.076687 s
ER_delC time              : 0 s
ER_delV time              : 0.459703 s
ER_sub time               : 6.35543 s
ER_stat time              : 0 s

INDETERMINATE
